c generated by sgen
c see http://www.cs.qub.ac.uk/~i.spence/sgen
p cnf 73 156
-2 -3 -4 0
-1 -3 -4 0
-1 -2 -4 0
-1 -2 -3 0
-6 -7 -8 0
-5 -7 -8 0
-5 -6 -8 0
-5 -6 -7 0
-10 -11 -12 0
-9 -11 -12 0
-9 -10 -12 0
-9 -10 -11 0
-14 -15 -16 0
-13 -15 -16 0
-13 -14 -16 0
-13 -14 -15 0
-18 -19 -20 0
-17 -19 -20 0
-17 -18 -20 0
-17 -18 -19 0
-22 -23 -24 0
-21 -23 -24 0
-21 -22 -24 0
-21 -22 -23 0
-26 -27 -28 0
-25 -27 -28 0
-25 -26 -28 0
-25 -26 -27 0
-30 -31 -32 0
-29 -31 -32 0
-29 -30 -32 0
-29 -30 -31 0
-34 -35 -36 0
-33 -35 -36 0
-33 -34 -36 0
-33 -34 -35 0
-38 -39 -40 0
-37 -39 -40 0
-37 -38 -40 0
-37 -38 -39 0
-42 -43 -44 0
-41 -43 -44 0
-41 -42 -44 0
-41 -42 -43 0
-46 -47 -48 0
-45 -47 -48 0
-45 -46 -48 0
-45 -46 -47 0
-50 -51 -52 0
-49 -51 -52 0
-49 -50 -52 0
-49 -50 -51 0
-54 -55 -56 0
-53 -55 -56 0
-53 -54 -56 0
-53 -54 -55 0
-58 -59 -60 0
-57 -59 -60 0
-57 -58 -60 0
-57 -58 -59 0
-62 -63 -64 0
-61 -63 -64 0
-61 -62 -64 0
-61 -62 -63 0
-66 -67 -68 0
-65 -67 -68 0
-65 -66 -68 0
-65 -66 -67 0
-69 -70 -71 0
-69 -70 -72 0
-69 -70 -73 0
-69 -71 -72 0
-69 -71 -73 0
-69 -72 -73 0
-70 -71 -72 0
-70 -71 -73 0
-70 -72 -73 0
-71 -72 -73 0
68 26 52 0
14 26 52 0
14 68 52 0
14 68 26 0
30 34 63 0
49 34 63 0
49 30 63 0
49 30 34 0
24 27 11 0
5 27 11 0
5 24 11 0
5 24 27 0
44 15 72 0
10 15 72 0
10 44 72 0
10 44 15 0
2 22 55 0
18 22 55 0
18 2 55 0
18 2 22 0
21 64 43 0
45 64 43 0
45 21 43 0
45 21 64 0
54 62 12 0
40 62 12 0
40 54 12 0
40 54 62 0
61 19 71 0
25 19 71 0
25 61 71 0
25 61 19 0
4 37 67 0
41 37 67 0
41 4 67 0
41 4 37 0
1 9 59 0
29 9 59 0
29 1 59 0
29 1 9 0
16 48 32 0
7 48 32 0
7 16 32 0
7 16 48 0
57 70 50 0
46 70 50 0
46 57 50 0
46 57 70 0
3 36 28 0
47 36 28 0
47 3 28 0
47 3 36 0
6 42 51 0
20 42 51 0
20 6 51 0
20 6 42 0
66 8 53 0
60 8 53 0
60 66 53 0
60 66 8 0
35 69 23 0
65 69 23 0
65 35 23 0
65 35 69 0
73 56 38 0
31 56 38 0
31 73 38 0
31 73 56 0
39 33 13 0
39 33 58 0
39 33 17 0
39 13 58 0
39 13 17 0
39 58 17 0
33 13 58 0
33 13 17 0
33 58 17 0
13 58 17 0
